; Property from "Productive Use of Failure in Inductive Proof",
; Andrew Ireland and Alan Bundy, JAR 1996
(declare-datatypes () ((Nat (Z) (S (p Nat)))))
(define-fun-rec
  plus
    ((x Nat) (y Nat)) Nat
    (match x
      (case Z y)
      (case (S z) (S (plus z y)))))
(define-fun-rec
  even
    ((x Nat)) Bool
    (match x
      (case Z true)
      (case (S y)
        (match y
          (case Z false)
          (case (S z) (even z))))))
(assert-not (forall ((x Nat)) (even (plus x x))))
(check-sat)
